nApps = 256
nRes = 9
nActs = 490
nNetworks = 6

assignmentToResources = [2,2,1,3,3,1,1,2,3,3,3,3,1,2,2,3,2,3,3,2,3,2,2,1,2,2,3,2,2,1,2,3,2,2,1,2,1,1,1,3,3,3,2,2,1,1,1,1,2,1,2,3,1,1,2,1,3,1,2,2,1,2,1,3,2,1,1,2,3,1,3,2,1,1,3,1,1,2,1,3,1,3,3,3,3,1,2,3,3,3,3,2,3,2,2,3,3,1,3,3,5,5,5,5,4,4,4,4,4,6,6,6,6,4,4,4,4,4,4,4,4,4,4,4,5,5,6,6,6,6,6,6,6,6,4,4,5,5,5,5,5,5,5,6,6,5,5,5,6,6,6,5,6,6,6,5,5,5,5,5,5,5,5,5,5,5,6,6,5,5,5,5,5,4,4,5,5,5,6,6,6,6,5,5,5,4,4,4,4,4,4,4,4,4,6,6,6,6,6,6,6,5,4,4,4,4,4,4,4,4,4,4,5,6,4,4,4,4,4,6,4,4,4,4,5,5,4,4,4,6,6,4,4,4,4,4,4,5,5,6,6,6,6,5,5,4,4,4,6,4,4,4,4,4,6,6,6,6,6,4,4,4,4,5,5,6,6,6,5,5,5,6,6,4,4,6,6,6,6,6,5,7,6,8,4,9,6,7,4,9,4,8,5,9,4,9,5,9,6,7,6,7,4,8,6,8,5,7,5,7,7,9,9,7,9,9,9,8,9,7,8,8,7,9,9,9,8,9,9,9,8,9,8,9,7,9,8,7,8,7,7,8,8,8,8,9,7,9,9,9,7,7,9,8,8,7,9,9,7,7,7,9,7,8,7,7,7,9,7,9,7,7,7,7,7,7,8,7,7,7,7,7,7,8,8,7,7,9,8,8,7,7,9,7,7,8,9,8,9,8,8,8,9,9,8,8,8,7,7,7,8,7,9,8,9,9,9,8,8,9,8,9,7,8,9,8,9,8,9,8,8,9,9,8,7,9,9,9,9,8,7,8,8,9,8,8,8,9,9,7,7,7,8,7,7,8,8,8,7,9,9,9,8,9,7,7,8,7,8,8,8,8,8,7,9,7,8,7,9,9,9,7,7,9,9,7,8,8,7,8];

processingTimes = [120,112,136,56,64,120,56,136,128,80,56,168,136,136,152,112,152,112,160,80,120,128,104,88,120,80,128,96,160,112,96,112,120,104,128,144,88,136,160,112,104,112,128,112,152,48,120,112,120,72,128,96,96,136,136,80,64,128,64,72,120,120,112,120,112,56,144,120,64,104,136,112,96,56,136,64,120,160,136,88,112,168,104,128,72,136,56,120,112,56,136,136,120,120,104,152,128,96,136,88,500,3,4,4,3,1000,3,500,1000,4,4,5,4,3,3,3,4,3,3,3,3,5,500,1000,5,5,4,4,5,500,3,3,3,5,4,4,4,4,4,500,500,4,5,3,500,4,3,3,13,13,4,3,500,3,3,500,500,4,4,8,3,3,500,4,4,500,4,500,4,500,4,3,3,3,4,3,5,4,7,4,4,4,4,3,3,4,1000,4,1000,4,4,3,3,4,4,4,4,5,5,4,3,17,3,3,8,1000,1000,500,3,4,500,4,4,4,4,500,4,500,3,3,4,8,4,4,3,500,1000,4,4,3,3,500,4,3,3,3,500,8,8,500,3,11,500,7,4,3,3,5,4,1000,13,3,13,3,4,3,3,500,3,4,3,4,4,4,4,4,4,200,4,13,3,4,500,1000,3,8,4,4,500,8,3,3,4,4,3,3,5,5,8,8,4,4,4,4,4,4,4,4,4,4,4,4,4,4,13,13,4,4,4,4,500,3,4,4,3,1000,3,500,1000,4,4,5,4,3,3,3,4,3,3,3,3,5,500,1000,5,5,4,4,5,500,3,3,3,5,4,4,4,4,4,500,500,4,5,3,500,4,3,3,13,13,4,3,500,3,3,500,500,4,4,8,3,3,500,4,4,500,4,500,4,500,4,3,3,3,4,3,5,4,7,4,4,4,4,3,3,4,1000,4,1000,4,4,3,3,4,4,4,4,5,5,4,3,17,3,3,8,1000,1000,500,3,4,500,4,4,4,4,500,4,500,3,3,4,8,4,4,3,500,1000,4,4,3,3,500,4,3,3,3,500,8,8,500,3,11,500,7,4,3,3,5,4,1000,13,3,13,3,4,3,3,500,3,4,3,4,4,4,4,4,4,200,4,13,3,4,500,1000,3,8,4,4,500,8];

periods = [50000,100000,20000,20000,100000,2000,20000,10000,20000,100000,100000,20000,10000,20000,10000,20000,10000,100000,100000,20000,10000,100000,20000,20000,20000,100000,10000,50000,10000,10000,20000,5000,5000,20000,20000,10000,100000,100000,10000,100000,100000,1000,10000,10000,100000,100000,100000,20000,100000,20000,10000,10000,50000,5000,20000,10000,100000,10000,100000,10000,10000,10000,10000,100000,10000,10000,100000,20000,100000,20000,100000,1000,10000,100000,10000,10000,10000,20000,10000,10000,1000,10000,100000,50000,20000,20000,100000,10000,20000,100000,2000,10000,20000,100000,10000,10000,100000,100000,20000,20000,50000,50000,100000,100000,20000,20000,20000,20000,20000,20000,20000,100000,100000,2000,2000,2000,2000,20000,20000,20000,20000,20000,20000,20000,10000,10000,20000,20000,100000,100000,20000,20000,20000,20000,10000,10000,20000,20000,20000,20000,20000,10000,10000,20000,20000,10000,10000,10000,100000,100000,100000,20000,10000,10000,10000,100000,100000,100000,20000,20000,20000,20000,100000,100000,100000,100000,10000,10000,50000,50000,10000,10000,10000,10000,10000,20000,20000,20000,5000,5000,5000,5000,20000,20000,20000,20000,20000,20000,20000,100000,100000,100000,100000,10000,100000,100000,100000,100000,100000,1000,1000,10000,100000,100000,100000,100000,100000,100000,20000,20000,20000,20000,10000,10000,50000,50000,50000,50000,5000,100000,10000,10000,10000,10000,10000,10000,10000,10000,10000,100000,100000,10000,10000,100000,100000,100000,100000,20000,20000,100000,100000,100000,100000,1000,1000,10000,10000,10000,10000,10000,10000,10000,10000,10000,100000,50000,50000,50000,20000,20000,20000,20000,20000,100000,100000,100000,100000,2000,10000,10000,100000,10000,100000,100000,100000,20000,20000,20000,20000,20000,20000,20000,20000,20000,100000,100000,100000,100000,20000,20000,10000,10000,10000,10000,10000,10000,10000,10000,10000,10000,10000,10000,20000,20000,20000,20000,20000,20000,5000,5000,50000,50000,100000,100000,20000,20000,20000,20000,20000,20000,20000,100000,100000,2000,2000,2000,2000,20000,20000,20000,20000,20000,20000,20000,10000,10000,20000,20000,100000,100000,20000,20000,20000,20000,10000,10000,20000,20000,20000,20000,20000,10000,10000,20000,20000,10000,10000,10000,100000,100000,100000,20000,10000,10000,10000,100000,100000,100000,20000,20000,20000,20000,100000,100000,100000,100000,10000,10000,50000,50000,10000,10000,10000,10000,10000,20000,20000,20000,5000,5000,5000,5000,20000,20000,20000,20000,20000,20000,20000,100000,100000,100000,100000,10000,100000,100000,100000,100000,100000,1000,1000,10000,100000,100000,100000,100000,100000,100000,20000,20000,20000,20000,10000,10000,50000,50000,50000,50000,5000,100000,10000,10000,10000,10000,10000,10000,10000,10000,10000,100000,100000,10000,10000,100000,100000,100000,100000,20000,20000,100000,100000,100000,100000,1000,1000,10000,10000,10000,10000,10000,10000,10000,10000,10000,100000,50000,50000,50000,20000,20000,20000,20000,20000,100000,100000,100000,100000,2000,10000,10000,100000,10000,100000,100000,100000,20000,20000,20000,20000,20000];

assignmentToClusters = [1,2,3,4,5,6,7,8,9,10,11,12,13,4,13,7,14,15,16,17,18,19,20,21,22,23,24,25,26,13,3,27,28,29,30,31,32,33,34,35,36,37,38,13,39,40,41,42,43,21,44,13,45,28,21,13,5,46,47,48,49,50,51,52,53,54,55,56,52,57,5,58,59,60,61,62,63,17,64,65,66,13,52,67,4,21,23,13,21,68,69,70,71,72,73,61,74,5,75,76,77,78,79,80,81,82,83,84,85,86,87,88,89,90,91,92,93,94,95,96,97,98,99,100,101,102,103,104,105,106,107,108,109,110,111,112,113,114,115,116,117,118,119,120,121,122,123,124,125,126,127,128,129,130,131,132,133,134,135,136,137,138,139,140,141,142,143,144,145,146,147,148,149,150,151,152,153,154,155,156,157,158,159,160,161,162,163,164,165,166,167,168,169,170,171,172,173,174,175,176,177,178,179,180,181,182,183,184,185,186,187,188,189,190,191,192,193,194,195,196,197,198,199,200,201,202,203,204,205,206,207,208,209,210,211,212,213,214,215,216,217,218,219,220,221,222,223,224,225,226,227,228,229,230,231,232,233,234,235,236,237,238,239,240,241,242,243,244,245,246,247,248,249,250,251,252,253,254,255,256,3,3,4,4,5,5,5,5,7,7,13,13,13,13,13,13,13,13,13,13,13,13,21,21,21,21,21,21,28,28,77,78,79,80,81,82,83,84,85,86,87,88,89,90,91,92,93,94,95,96,97,98,99,100,101,102,103,104,105,106,107,108,109,110,111,112,113,114,115,116,117,118,119,120,121,122,123,124,125,126,127,128,129,130,131,132,133,134,135,136,137,138,139,140,141,142,143,144,145,146,147,148,149,150,151,152,153,154,155,156,157,158,159,160,161,162,163,164,165,166,167,168,169,170,171,172,173,174,175,176,177,178,179,180,181,182,183,184,185,186,187,188,189,190,191,192,193,194,195,196,197,198,199,200,201,202,203,204,205,206,207,208,209,210,211,212,213,214,215,216,217,218,219,220,221,222,223,224,225,226,227,228,229,230,231,232,233,234,235,236,237,238,239,240,241,242,243,244,245,246,247,248,249,250,251,252,253,254,255,256];

precedenceAdjList = [[],[],[281],[84],[285],[],[],[],[],[],[],[],[],[283],[],[289],[],[],[],[],[],[],[],[],[],[],[],[],[],[299],[],[],[],[],[],[],[],[],[],[],[],[],[],[291],[],[],[],[],[],[307],[],[],[],[309],[303,305],[301],[],[],[],[],[],[],[],[82],[],[],[],[],[],[],[4],[],[],[],[],[],[],[19],[],[],[],[87],[68],[],[],[23],[25],[293,295,297],[],[],[],[],[],[],[],[74],[],[287],[],[],[],[],[],[],[],[],[],[],[],[],[],[],[],[],[],[],[],[],[],[],[],[],[],[],[],[],[],[],[],[],[],[],[],[],[],[],[],[],[],[],[],[],[],[],[],[],[],[],[],[],[],[],[],[],[],[],[],[],[],[],[],[],[],[],[],[],[],[],[],[],[],[],[],[],[],[],[],[],[],[],[],[],[],[],[],[],[],[],[],[],[],[],[],[],[],[],[],[],[],[],[],[],[],[],[],[],[],[],[],[],[],[],[],[],[],[],[],[],[],[],[],[],[],[],[],[],[],[],[],[],[],[],[],[],[],[],[],[],[],[],[],[],[],[],[],[],[],[],[],[],[],[],[],[],[],[],[],[],[],[],[],[],[],[],[],[],[],[],[],[],[],[],[],[],[],[],[],[],[],[],[30],[280],[3],[282],[97],[284],[56],[286],[6],[288],[12],[290],[14],[292],[29],[294],[43],[296],[51],[298],[87],[300],[85],[302],[88],[304],[54],[306],[32],[308],[100],[101],[102],[103],[104],[105],[106],[107],[108],[109],[110],[111],[112],[113],[114],[115],[116],[117],[118],[119],[120],[121],[122],[123],[124],[125],[126],[127],[128],[129],[130],[131],[132],[133],[134],[135],[136],[137],[138],[139],[140],[141],[142],[143],[144],[145],[146],[147],[148],[149],[150],[151],[152],[153],[154],[155],[156],[157],[158],[159],[160],[161],[162],[163],[164],[165],[166],[167],[168],[169],[170],[171],[172],[173],[174],[175],[176],[177],[178],[179],[180],[181],[182],[183],[184],[185],[186],[187],[188],[189],[190],[191],[192],[193],[194],[195],[196],[197],[198],[199],[200],[201],[202],[203],[204],[205],[206],[207],[208],[209],[210],[211],[212],[213],[214],[215],[216],[217],[218],[219],[220],[221],[222],[223],[224],[225],[226],[227],[228],[229],[230],[231],[232],[233],[234],[235],[236],[237],[238],[239],[240],[241],[242],[243],[244],[245],[246],[247],[248],[249],[250],[251],[252],[253],[254],[255],[256],[257],[258],[259],[260],[261],[262],[263],[264],[265],[266],[267],[268],[269],[270],[271],[272],[273],[274],[275],[276],[277],[278],[279]];